\ Model vert
\ LP format - for model browsing. Use MPS format to capture full model detail.
\ Signature: 0xc60ddf5a1d6698dd
Minimize
  5129.157961005303 S_coef + 88.28512640924615 Constant + [ 148996 S_coef ^2
   ] / 2 
Subject To
Bounds
 -1000 <= S_coef <= 1000
 Constant = 1
End
